
Gurobi 9.5.0 (linux64) logging started Wed Nov  8 21:40:07 2023

Set parameter LogFile to value "/lustre1/scratch/348/vsc34888/JointResearch/05.Models/06.Benchmarking/G.Representative_days_based_on_Line_Benefit_NN_OC_fy_2/RTS24_ByStages/openStarNet_RTS24_ByStages.log"
Set parameter Method to value 2
Set parameter MIPFocus to value 1
Set parameter Presolve to value 2
Set parameter RINS to value 100
Set parameter MIPGap to value 0.01
Set parameter Threads to value 36
Set parameter TimeLimit to value 604800
Set parameter IterationLimit to value 760000000
Gurobi Optimizer version 9.5.0 build v9.5.0rc5 (linux64)
Thread count: 36 physical cores, 36 logical processors, using up to 36 threads
Optimize a model with 20028 rows, 11578 columns and 55190 nonzeros
Model fingerprint: 0x7b709e8b
Variable types: 11539 continuous, 39 integer (39 binary)
Coefficient statistics:
  Matrix range     [1e-03, 2e+03]
  Objective range  [1e+00, 1e+00]
  Bounds range     [4e-04, 3e+00]
  RHS range        [4e-04, 3e+00]
Presolve removed 9768 rows and 4939 columns
Presolve time: 0.09s
Presolved: 10260 rows, 6639 columns, 35715 nonzeros
Variable types: 6600 continuous, 39 integer (39 binary)
Found heuristic solution: objective 149.9882535
Root relaxation presolved: 10260 rows, 6639 columns, 35715 nonzeros

Root barrier log...

Ordering time: 0.00s

Barrier statistics:
 Dense cols : 39
 AA' NZ     : 7.592e+04
 Factor NZ  : 2.448e+05 (roughly 9 MB of memory)
 Factor Ops : 7.324e+06 (less than 1 second per iteration)
 Threads    : 36

                  Objective                Residual
Iter       Primal          Dual         Primal    Dual     Compl     Time
   0   6.34502549e+05 -8.21501820e+07  4.61e+00 4.16e+02  1.15e+04     0s
   1   7.12839839e+04 -2.26093118e+07  4.35e-01 2.67e-09  1.50e+03     0s
   2   2.06576305e+04 -3.55554262e+06  1.05e-02 1.59e-09  1.74e+02     0s
   3   1.32905344e+04 -1.80514246e+05  1.05e-12 1.75e-10  9.26e+00     0s
   4   2.71720149e+03 -2.13622066e+04  9.22e-13 1.40e-11  1.15e+00     0s
   5   9.91097489e+02 -5.97024892e+03  3.74e-13 3.60e-12  3.33e-01     0s
   6   4.64774450e+02 -1.65540322e+03  3.75e-13 9.63e-13  1.01e-01     0s
   7   2.84275168e+02 -6.28369329e+02  2.81e-13 1.82e-12  4.36e-02     0s
   8   1.51912198e+02 -1.75177634e+02  2.60e-13 1.82e-12  1.56e-02     0s
   9   1.24780998e+02  9.39868524e+00  1.95e-13 9.09e-13  5.51e-03     0s
  10   9.90278242e+01  6.30955905e+01  2.84e-13 1.82e-12  1.72e-03     0s
  11   9.12336922e+01  7.99895854e+01  6.66e-13 1.82e-12  5.37e-04     0s
  12   8.99075132e+01  8.53243716e+01  1.51e-12 3.64e-12  2.19e-04     0s
  13   8.89148485e+01  8.66739357e+01  4.48e-12 1.82e-12  1.07e-04     0s
  14   8.84571402e+01  8.71380184e+01  5.70e-12 9.09e-13  6.30e-05     0s
  15   8.82593467e+01  8.75891368e+01  4.66e-12 1.82e-12  3.20e-05     0s
  16   8.79846889e+01  8.78120776e+01  5.32e-11 1.82e-12  8.25e-06     0s
  17   8.79692058e+01  8.78440493e+01  4.28e-11 1.82e-12  5.98e-06     0s
  18   8.79563887e+01  8.78632622e+01  2.44e-11 1.82e-12  4.45e-06     0s
  19   8.79381922e+01  8.78857608e+01  3.09e-11 9.09e-13  2.51e-06     0s
  20   8.79279810e+01  8.79097008e+01  4.24e-11 9.09e-13  8.73e-07     0s
  21   8.79238465e+01  8.79221096e+01  3.09e-11 1.82e-12  8.30e-08     0s
  22   8.79234095e+01  8.79233496e+01  2.55e-09 1.82e-12  2.86e-09     0s
  23   8.79233608e+01  8.79233608e+01  1.10e-10 9.09e-13  1.73e-13     0s

Barrier solved model in 23 iterations and 0.44 seconds (0.32 work units)
Optimal objective 8.79233608e+01


Root relaxation: objective 8.792336e+01, 799 iterations, 0.31 seconds (0.17 work units)

    Nodes    |    Current Node    |     Objective Bounds      |     Work
 Expl Unexpl |  Obj  Depth IntInf | Incumbent    BestBd   Gap | It/Node Time

     0     0   87.92336    0   12  149.98825   87.92336  41.4%     -    0s
H    0     0                     103.6974985   87.92336  15.2%     -    0s
     0     0   90.38710    0   12  103.69750   90.38710  12.8%     -    0s
     0     0   90.49124    0   12  103.69750   90.49124  12.7%     -    1s
     0     0   90.49124    0   12  103.69750   90.49124  12.7%     -    1s
     0     0   91.22021    0    9  103.69750   91.22021  12.0%     -    1s
     0     0   91.22760    0   10  103.69750   91.22760  12.0%     -    1s
     0     0   91.32016    0   11  103.69750   91.32016  11.9%     -    1s
     0     0   91.35317    0   11  103.69750   91.35317  11.9%     -    1s
     0     0   91.37182    0   11  103.69750   91.37182  11.9%     -    1s
     0     0   91.42480    0   11  103.69750   91.42480  11.8%     -    1s
     0     0   91.42511    0   11  103.69750   91.42511  11.8%     -    1s
     0     0   91.43130    0   11  103.69750   91.43130  11.8%     -    1s
     0     0   91.43152    0   11  103.69750   91.43152  11.8%     -    1s
     0     0   91.43375    0   11  103.69750   91.43375  11.8%     -    2s
H    0     0                      99.4996870   91.43375  8.11%     -    3s
     0     2   91.43375    0   11   99.49969   91.43375  8.11%     -    3s
   103    23   98.47834    9    8   99.49969   95.07027  4.45%   189    5s

Cutting planes:
  Gomory: 5
  Implied bound: 76
  MIR: 306
  Relax-and-lift: 8

Explored 205 nodes (29364 simplex iterations) in 6.11 seconds (6.38 work units)
Thread count was 36 (of 36 available processors)

Solution count 3: 99.4997 103.697 149.988 

Optimal solution found (tolerance 1.00e-02)
Best objective 9.949968702815e+01, best bound 9.949968702815e+01, gap 0.0000%

Gurobi 9.5.0 (linux64) logging started Wed Nov  8 21:40:15 2023

Set parameter LogFile to value "/lustre1/scratch/348/vsc34888/JointResearch/05.Models/06.Benchmarking/G.Representative_days_based_on_Line_Benefit_NN_OC_fy_2/RTS24_ByStages/openStarNet_RTS24_ByStages.log"
Set parameter Method to value 2
Set parameter MIPFocus to value 1
Set parameter Presolve to value 2
Set parameter RINS to value 100
Set parameter MIPGap to value 0.01
Set parameter Threads to value 36
Set parameter TimeLimit to value 604800
Set parameter IterationLimit to value 760000000
No parameters matching 'relax_integrality' found
Gurobi Optimizer version 9.5.0 build v9.5.0rc5 (linux64)
Thread count: 36 physical cores, 36 logical processors, using up to 36 threads
Optimize a model with 20028 rows, 11539 columns and 48131 nonzeros
Model fingerprint: 0xe817c65e
Coefficient statistics:
  Matrix range     [1e-03, 2e+03]
  Objective range  [1e+00, 1e+00]
  Bounds range     [4e-04, 3e+00]
  RHS range        [4e-04, 3e+01]
Presolve removed 15844 rows and 5391 columns
Presolve time: 0.02s
Presolved: 4184 rows, 6238 columns, 15416 nonzeros

Ordering time: 0.00s

Barrier statistics:
 AA' NZ     : 1.076e+04
 Factor NZ  : 4.574e+04 (roughly 4 MB of memory)
 Factor Ops : 6.928e+05 (less than 1 second per iteration)
 Threads    : 1

                  Objective                Residual
Iter       Primal          Dual         Primal    Dual     Compl     Time
   0   7.07782177e+05 -2.49316480e+08  6.10e+00 7.18e+02  4.74e+04     0s
   1   8.02751208e+04 -3.99291244e+07  5.34e-01 3.08e-11  4.98e+03     0s
   2   4.08353495e+04 -4.02244088e+06  1.44e-01 3.14e-11  4.72e+02     0s
   3   2.32373417e+04 -3.76952737e+05  5.63e-03 2.18e-11  3.79e+01     0s
   4   1.07387802e+04 -7.98531310e+04  1.85e-04 4.51e-11  8.46e+00     0s
   5   3.39520992e+03 -1.92483165e+04  3.28e-05 3.60e-11  2.11e+00     0s
   6   6.95873230e+02 -2.18272283e+03  1.77e-06 3.64e-12  2.69e-01     0s
   7   3.91856651e+02 -7.25601056e+02  7.04e-07 7.28e-12  1.04e-01     0s
   8   2.74572989e+02 -1.75506013e+02  3.85e-07 3.64e-12  4.20e-02     0s
   9   1.50523538e+02  3.54939683e+01  9.91e-08 1.46e-11  1.07e-02     0s
  10   1.15017564e+02  7.79588879e+01  2.73e-08 3.64e-12  3.46e-03     0s
  11   1.06914128e+02  9.17471819e+01  1.27e-08 3.64e-12  1.42e-03     0s
  12   1.02067650e+02  9.65874633e+01  4.17e-09 7.28e-12  5.12e-04     0s
  13   9.98152906e+01  9.88275581e+01  4.22e-10 3.64e-12  9.22e-05     0s
  14   9.95509040e+01  9.94368739e+01  5.06e-11 1.82e-12  1.06e-05     0s
  15   9.95001192e+01  9.94928407e+01  1.08e-11 7.28e-12  6.80e-07     0s
  16   9.94997548e+01  9.94983281e+01  2.21e-10 3.64e-12  1.33e-07     0s
  17   9.94996904e+01  9.94996744e+01  5.38e-11 1.82e-12  1.49e-09     0s
  18   9.94996870e+01  9.94996870e+01  1.54e-12 7.28e-12  3.62e-15     0s

Barrier solved model in 18 iterations and 0.07 seconds (0.07 work units)
Optimal objective 9.94996870e+01

Crossover log...

     562 DPushes remaining with DInf 0.0000000e+00                 0s
       0 DPushes remaining with DInf 0.0000000e+00                 0s

     209 PPushes remaining with PInf 0.0000000e+00                 0s
       0 PPushes remaining with PInf 0.0000000e+00                 0s

  Push phase complete: Pinf 0.0000000e+00, Dinf 1.2738818e-12      0s

Iteration    Objective       Primal Inf.    Dual Inf.      Time
     229    9.9499687e+01   0.000000e+00   0.000000e+00      0s

Use crossover to convert LP symmetric solution to basic solution...
Crossover log...

       0 DPushes remaining with DInf 0.0000000e+00                 0s

     137 PPushes remaining with PInf 0.0000000e+00                 0s
       0 PPushes remaining with PInf 0.0000000e+00                 0s

  Push phase complete: Pinf 0.0000000e+00, Dinf 1.6807852e-12      0s

Iteration    Objective       Primal Inf.    Dual Inf.      Time
     389    9.9499687e+01   0.000000e+00   0.000000e+00      0s

Solved in 389 iterations and 0.11 seconds (0.09 work units)
Optimal objective  9.949968703e+01
